100 10
23 36
47 95
48 51
43 69
40 7
39 43
54 100
58 38
27 8
37 8
86 18
4 85
61 35
72 8
44 30
89 30
58 28
42 14
20 14
63 57
87 15
28 44
37 40
68 53
83 81
46 46
77 95
93 42
12 17
26 3
88 97
97 49
13 85
57 86
48 1
74 44
27 71
74 10
1 18
4 98
1 47
42 39
13 40
75 57
20 50
61 23
96 26
79 73
77 23
63 4
22 2
38 49
41 15
83 65
46 39
13 71
36 89
19 47
98 55
89 40
51 88
69 47
56 45
7 10
57 10
65 17
97 28
100 90
69 18
63 62
100 25
70 94
91 77
12 99
81 78
21 19
28 53
85 23
82 36
42 49
15 37
72 23
10 85
62 19
69 40
33 47
66 16
36 62
76 13
18 31
75 82
8 18
18 66
1 8
100 20
8 79
67 18
97 17
97 17
95 35
512 627
439 513
496 596
502 608
587 662
497 610
554 629
487 587
644 762
526 646
